(declare-fun var0 () String)
(assert (str.in.re var0 (re.++ (re.union (re.* (str.to.re "^^^")) (re.* (str.to.re "_"))) (re.++ (re.union (re.union (str.to.re "[") (str.to.re "\\\\\\")) (re.+ (str.to.re "]]]"))) (re.++ (re.* (re.* (str.to.re "@@"))) (re.++ (re.+ (re.* (str.to.re "?"))) (re.++ (re.+ (re.union (str.to.re "==") (str.to.re ">>"))) (re.++ (re.* (re.* (str.to.re "<"))) (re.++ (re.union (re.* (str.to.re "//")) (re.union (str.to.re "::") (str.to.re ";;"))) (re.++ (re.+ (re.+ (str.to.re ".."))) (re.++ (re.+ (re.* (str.to.re "--"))) (re.++ (re.+ (re.+ (str.to.re ",,"))) (re.++ (re.union (re.* (str.to.re "**")) (re.* (str.to.re "+++"))) (re.++ (re.union (re.union (str.to.re "'''") (str.to.re "(")) (re.+ (str.to.re ")"))) (re.++ (re.* (re.+ (str.to.re "&&"))) (re.++ (re.* (re.* (str.to.re "%%%"))) (re.++ (re.union (re.union (str.to.re """") (str.to.re "##")) (re.+ (str.to.re "$$"))) (re.++ (re.+ (re.+ (str.to.re "!!!"))) (re.++ (re.* (re.+ (str.to.re "ZZZ"))) (re.++ (re.union (re.+ (str.to.re "XXX")) (re.* (str.to.re "YY"))) (re.++ (re.+ (re.* (str.to.re "WW"))) (re.++ (re.+ (re.* (str.to.re "VVV"))) (re.++ (re.+ (re.union (str.to.re "TTT") (str.to.re "UUU"))) (re.++ (re.+ (re.* (str.to.re "SSS"))) (re.++ (re.+ (re.* (str.to.re "RRR"))) (re.++ (re.union (re.+ (str.to.re "P")) (re.+ (str.to.re "QQQ"))) (re.++ (re.* (re.* (str.to.re "O"))) (re.++ (re.+ (re.union (str.to.re "MM") (str.to.re "N"))) (re.++ (re.union (re.union (str.to.re "JJJ") (str.to.re "KKK")) (re.* (str.to.re "LLL"))) (re.++ (re.union (re.+ (str.to.re "GGG")) (re.union (str.to.re "HHH") (str.to.re "II"))) (re.++ (re.union (re.* (str.to.re "DDD")) (re.union (str.to.re "EE") (str.to.re "FFF"))) (re.++ (re.+ (re.+ (str.to.re "CC"))) (re.++ (re.* (re.union (str.to.re "AA") (str.to.re "B"))) (re.++ (re.+ (re.union (str.to.re "yy") (str.to.re "zz"))) (re.++ (re.+ (re.* (str.to.re "x"))) (re.++ (re.* (re.+ (str.to.re "w"))) (re.++ (re.union (re.+ (str.to.re "ttt")) (re.union (str.to.re "uuu") (str.to.re "vv"))) (re.++ (re.* (re.+ (str.to.re "ss"))) (re.++ (re.union (re.+ (str.to.re "qqq")) (re.+ (str.to.re "r"))) (re.++ (re.union (re.+ (str.to.re "oo")) (re.* (str.to.re "pp"))) (re.++ (re.* (re.union (str.to.re "mmm") (str.to.re "nnn"))) (re.++ (re.+ (re.+ (str.to.re "lll"))) (re.++ (re.+ (re.union (str.to.re "jjj") (str.to.re "k"))) (re.++ (re.union (re.+ (str.to.re "h")) (re.+ (str.to.re "i"))) (re.++ (re.+ (re.union (str.to.re "f") (str.to.re "ggg"))) (re.++ (re.+ (re.* (str.to.re "ee"))) (re.++ (re.+ (re.* (str.to.re "ddd"))) (re.++ (re.* (re.union (str.to.re "bb") (str.to.re "c"))) (re.++ (re.union (re.union (str.to.re "77") (str.to.re "888")) (re.union (str.to.re "9") (str.to.re "aa"))) (re.++ (re.+ (re.+ (str.to.re "666"))) (re.++ (re.union (re.* (str.to.re "333")) (re.union (str.to.re "444") (str.to.re "555"))) (re.++ (re.union (re.+ (str.to.re "11")) (re.* (str.to.re "22"))) (re.+ (re.* (str.to.re "000")))))))))))))))))))))))))))))))))))))))))))))))))))))))
(assert (not (str.in.re var0 (re.++ (re.* (re.union (str.to.re "\\\\") (str.to.re "]]]"))) (re.++ (re.+ (re.+ (str.to.re "["))) (re.++ (re.+ (re.* (str.to.re "@@@"))) (re.++ (re.union (re.* (str.to.re ">>>")) (re.* (str.to.re "??"))) (re.++ (re.+ (re.+ (str.to.re "=="))) (re.++ (re.union (re.* (str.to.re ";;")) (re.* (str.to.re "<<"))) (re.++ (re.* (re.* (str.to.re ":"))) (re.++ (re.+ (re.union (str.to.re "..") (str.to.re "///"))) (re.++ (re.union (re.union (str.to.re "+++") (str.to.re ",,")) (re.* (str.to.re "---"))) (re.++ (re.+ (re.* (str.to.re "***"))) (re.++ (re.+ (re.union (str.to.re "((") (str.to.re ")"))) (re.++ (re.* (re.union (str.to.re "&&&") (str.to.re "'"))) (re.++ (re.+ (re.* (str.to.re "%"))) (re.++ (re.* (re.+ (str.to.re "$"))) (re.++ (re.+ (re.* (str.to.re "##"))) (re.++ (re.* (re.union (str.to.re "!") (str.to.re """"""))) (re.++ (re.+ (re.+ (str.to.re "ZZ"))) (re.++ (re.+ (re.union (str.to.re "X") (str.to.re "Y"))) (re.++ (re.+ (re.union (str.to.re "VV") (str.to.re "WW"))) (re.++ (re.* (re.union (str.to.re "TTT") (str.to.re "UU"))) (re.++ (re.+ (re.* (str.to.re "S"))) (re.++ (re.+ (re.+ (str.to.re "R"))) (re.++ (re.union (re.union (str.to.re "NNN") (str.to.re "O")) (re.union (str.to.re "PPP") (str.to.re "QQQ"))) (re.++ (re.union (re.* (str.to.re "LLL")) (re.+ (str.to.re "M"))) (re.++ (re.union (re.+ (str.to.re "J")) (re.* (str.to.re "KK"))) (re.++ (re.* (re.* (str.to.re "I"))) (re.++ (re.+ (re.+ (str.to.re "HHH"))) (re.++ (re.+ (re.* (str.to.re "GG"))) (re.++ (re.+ (re.union (str.to.re "EEE") (str.to.re "F"))) (re.++ (re.+ (re.* (str.to.re "DDD"))) (re.++ (re.* (re.+ (str.to.re "CC"))) (re.++ (re.union (re.+ (str.to.re "zzz")) (re.union (str.to.re "AA") (str.to.re "B"))) (re.++ (re.+ (re.* (str.to.re "yyy"))) (re.++ (re.+ (re.union (str.to.re "w") (str.to.re "xx"))) (re.++ (re.union (re.union (str.to.re "ttt") (str.to.re "uu")) (re.+ (str.to.re "v"))) (re.++ (re.+ (re.+ (str.to.re "ss"))) (re.++ (re.* (re.+ (str.to.re "rr"))) (re.++ (re.union (re.union (str.to.re "o") (str.to.re "p")) (re.+ (str.to.re "qqq"))) (re.++ (re.union (re.+ (str.to.re "m")) (re.* (str.to.re "nnn"))) (re.++ (re.union (re.union (str.to.re "jjj") (str.to.re "kk")) (re.+ (str.to.re "l"))) (re.++ (re.+ (re.union (str.to.re "hhh") (str.to.re "iii"))) (re.++ (re.union (re.+ (str.to.re "f")) (re.* (str.to.re "gg"))) (re.++ (re.* (re.* (str.to.re "e"))) (re.++ (re.union (re.* (str.to.re "ccc")) (re.+ (str.to.re "d"))) (re.++ (re.union (re.+ (str.to.re "aaa")) (re.* (str.to.re "b"))) (re.++ (re.+ (re.* (str.to.re "9"))) (re.++ (re.+ (re.* (str.to.re "88"))) (re.++ (re.union (re.* (str.to.re "55")) (re.union (str.to.re "66") (str.to.re "7"))) (re.++ (re.* (re.union (str.to.re "33") (str.to.re "44"))) (re.++ (re.+ (re.union (str.to.re "11") (str.to.re "2"))) (re.* (re.+ (str.to.re "000"))))))))))))))))))))))))))))))))))))))))))))))))))))))))
(check-sat)